p cnf 83 278
4 2 0
4 -3 0
-2 3 -4 0
5 -1 0
5 4 0
1 -4 -5 0
7 -3 0
7 6 0
3 -6 -7 0
-8 -7 0
-8 -6 0
7 6 8 0
-9 -8 0
-9 7 0
8 -7 9 0
5 9 -10 0
-5 -9 -10 0
5 -9 10 0
-5 9 10 0
13 11 0
13 12 0
-11 -12 -13 0
-14 -1 -15 0
14 1 -15 0
-14 1 15 0
14 -1 15 0
16 -15 0
16 14 0
15 -14 -16 0
-17 -16 0
-17 -3 0
16 3 17 0
-18 -13 0
-18 -17 0
13 17 18 0
-10 -18 -19 0
10 18 -19 0
-10 18 19 0
10 -18 19 0
20 -8 0
20 1 0
8 -1 -20 0
-8 14 -21 0
8 -14 -21 0
-8 -14 21 0
8 14 21 0
-21 3 -22 0
21 -3 -22 0
-21 -3 22 0
21 3 22 0
-20 22 -23 0
20 -22 -23 0
-20 -22 23 0
20 22 23 0
24 14 0
24 -15 0
-14 15 -24 0
26 -25 0
26 -22 0
25 22 -26 0
24 26 -27 0
-24 -26 -27 0
24 -26 27 0
-24 26 27 0
-23 -27 -28 0
23 27 -28 0
-23 27 28 0
23 -27 28 0
-29 -19 0
-29 -28 0
19 28 29 0
31 30 0
31 -3 0
-30 3 -31 0
32 -31 0
32 11 0
31 -11 -32 0
-33 -26 0
-33 -3 0
26 3 33 0
34 21 0
34 -12 0
-21 12 -34 0
-35 33 0
-35 -34 0
-33 34 35 0
36 3 0
36 -35 0
-3 35 -36 0
-32 36 -37 0
32 -36 -37 0
-32 -36 37 0
32 36 37 0
-40 -39 0
-40 30 0
39 -30 40 0
41 -40 0
41 -14 0
40 14 -41 0
42 -38 0
42 -41 0
38 41 -42 0
14 -42 -43 0
-14 42 -43 0
14 42 43 0
-14 -42 43 0
-1 -16 -45 0
1 16 -45 0
-1 16 45 0
1 -16 45 0
-46 44 0
-46 45 0
-44 -45 46 0
-24 -46 -47 0
24 46 -47 0
-24 46 47 0
24 -46 47 0
47 30 -48 0
-47 -30 -48 0
47 -30 48 0
-47 30 48 0
49 -43 0
49 -48 0
43 48 -49 0
37 49 -50 0
-37 -49 -50 0
37 -49 50 0
-37 49 50 0
-51 -40 0
-51 15 0
40 -15 51 0
52 25 0
52 -25 0
51 52 -53 0
-51 -52 -53 0
51 -52 53 0
-51 52 53 0
54 7 0
54 11 0
-7 -11 -54 0
53 54 -55 0
-53 -54 -55 0
53 -54 55 0
-53 54 55 0
-50 -55 -56 0
50 55 -56 0
-50 55 56 0
50 -55 56 0
-41 8 -57 0
41 -8 -57 0
-41 -8 57 0
41 8 57 0
58 -38 0
58 30 0
38 -30 -58 0
-59 43 0
-59 58 0
-43 -58 59 0
-60 57 0
-60 59 0
-57 -59 60 0
61 -56 0
61 60 0
56 -60 -61 0
62 -29 0
62 -61 0
29 61 -62 0
24 -45 -63 0
-24 45 -63 0
24 45 63 0
-24 -45 63 0
-65 -1 0
-65 64 0
1 -64 65 0
66 -30 0
66 -45 0
30 45 -66 0
-67 65 0
-67 -66 0
-65 66 67 0
1 40 -68 0
-1 -40 -68 0
1 -40 68 0
-1 40 68 0
69 -67 0
69 -68 0
67 68 -69 0
63 -69 -70 0
-63 69 -70 0
63 69 70 0
-63 -69 70 0
-72 71 0
-72 -46 0
-71 46 72 0
73 72 0
73 26 0
-72 -26 -73 0
33 -51 -74 0
-33 51 -74 0
33 51 74 0
-33 -51 74 0
-75 -73 0
-75 -74 0
73 74 75 0
-15 41 -76 0
15 -41 -76 0
-15 -41 76 0
15 41 76 0
77 75 0
77 76 0
-75 -76 -77 0
-78 40 0
-78 6 0
-40 -6 78 0
79 -43 0
79 -31 0
43 31 -79 0
80 -78 0
80 79 0
78 -79 -80 0
-77 -80 -81 0
77 80 -81 0
-77 80 81 0
77 -80 81 0
-82 70 0
-82 -81 0
-70 81 82 0
62 82 -83 0
-62 -82 -83 0
62 -82 83 0
-62 82 83 0
-41 -11 -32 -64 0
-80 22 48 70 0
-64 33 -55 0
-53 83 0
-38 24 0
82 -15 -59 -83 0
7 54 9 73 -51 -63 0
-33 -11 19 28 0
63 -78 -32 -48 8 0
-65 61 40 6 0
32 -67 40 57 -54 -6 0
-23 28 49 -1 -48 0
-69 56 22 -35 68 -6 0
38 -28 -3 0
-39 -5 -71 0
-21 20 83 42 -62 0
-33 56 -57 -76 -32 0
9 -34 0
4 76 0
41 -73 -2 20 -44 -25 0
38 -7 0
83 -51 -64 23 -29 -42 0
-12 25 -80 70 0
-78 28 9 -51 -22 -56 0
-28 -72 66 0
-52 -61 0
-19 61 65 -78 -57 0
-60 -43 -51 -35 -41 0
59 -40 0
7 -78 -39 -47 72 0
-61 -28 58 0
-64 30 -34 0
-75 -65 29 21 0
-50 -31 20 78 0
12 79 15 81 0
55 -53 -39 -11 29 27 0
56 68 -43 -21 0
-44 -71 0
-64 -16 -76 0
65 46 20 0
-40 81 -24 -42 17 0
-2 39 0
35 79 70 82 29 0
17 -69 2 0
10 -22 -39 42 -77 -76 0
53 27 -68 -83 78 -18 0
83 0
